c ---- [ banner ] ------------------------------------------------------------
c
c Kissat SAT Solver
c 
c Copyright (c) 2021-2024 Armin Biere University of Freiburg
c Copyright (c) 2019-2021 Armin Biere Johannes Kepler University Linz
c 
c Version 4.0.1 43f02cf3e992cb44653b35e5cb26f93281552ae0
c gcc (Ubuntu 13.2.0-23ubuntu4) 13.2.0 -W -Wall -O3 -DNDEBUG
c Thu Sep 12 12:27:46 CEST 2024 Linux abryzen9 6.8.0-41-generic x86_64
c
c ---- [ parsing ] -----------------------------------------------------------
c
c opened and reading DIMACS file:
c
c   /data/artifact/AMulet2.0_artifact/exp4/cnf_dc2_64/64_64_U1_WT_LF_Multgen_dc2.cnf
c
c parsed 'p cnf 30967 134585' header
c closing input after reading 2686750 bytes (3 MB)
c finished parsing after 0.02 seconds
c
c ---- [ options ] -----------------------------------------------------------
c
c --stable=0                       (different from default '1')
c
c ---- [ solving ] -----------------------------------------------------------
c
c  seconds switched rate     size/glue tier1  binary           remaining
c         MB reductions conflicts size  tier2     irredundant
c          level restarts redundant glue  trail           variables
c
c *  0.02 10 0 0 0  0 0   0   0 0.0 0 0 0 0 0% 13140 121443 30964 100%
c (  0.04 13 0 0 0  0 0   0   0 0.0 0 0 0 0 0% 13140 121443 30964 100%
c .  0.04 13 0 0 0  0 0   0   0 0.0 0 0 0 0 0% 13136 121443 30964 100%
c c  0.10 19 0 0 0  0 0   0   0 0.0 0 0 0 0 0% 20127 107661 27468 89%
c d  0.11 19 0 0 0  0 0   0   0 0.0 0 0 0 0 0% 13135 107661 27468 89%
c =  0.15 19 0 0 0  0 0   0   0 0.0 0 0 0 0 0% 13453 107661 27243 88%
c d  0.15 19 0 0 0  0 0   0   0 0.0 0 0 0 0 0% 13003 107661 27243 88%
c f  0.24 19 0 0 0  0 0   0   0 0.0 0 0 0 0 0% 18039 99756 30058 97%
c e  0.42 28 0 0 0  0 0   0   0 0.0 0 0 0 0 0% 11435 108219 20828 67%
c )  0.42 28 0 0 0  0 0   0   0 0.0 0 0 0 0 0% 11435 108219 20828 67%
c {  0.44 28 0 0 0  0 0   0   0 0.0 0 0 2 6 0% 11435 108219 20828 67%
c -  0.56 28 153 0 1 257 35 1000 692 2.5 12 5 3 9 15% 11526 108215 20828 67%
c -  0.68 28 371 0 2 416 45 2000 1411 3.4 17 5 3 9 19% 11580 108207 20828 67%
c c  0.77 23 422 0 2 453 42 2503 1869 3.3 16 5 3 9 19% 11704 107804 20766 67%
c d  0.78 23 422 0 2 453 42 2503 1861 3.3 16 5 3 9 19% 11580 107804 20766 67%
c u  0.79 23 422 0 2 453 42 2503 1449 3.3 16 5 3 9 19% 11581 107804 20766 67%
c v  0.80 23 422 0 2 453 42 2503 1301 3.3 16 5 3 9 19% 11581 107804 20766 67%
c w  0.81 23 422 0 2 453 42 2503 1301 3.3 16 5 3 9 19% 11581 107804 20766 67%
c x  0.82 23 422 0 2 453 42 2503 1301 3.3 16 5 3 9 19% 11671 107608 20766 67%
c =  0.88 31 422 0 2 453 42 2503 1301 3.3 16 5 3 9 19% 11983 107608 20610 67%
c
c  seconds   switched   rate       size/glue tier1    binary           remaining
c         MB  reductions conflicts       size  tier2      irredundant
c           level restarts    redundant    glue   trail           variables
c
c d  0.89 31 422 0 2 453 42 2503 1300 3.3 16 5 3 9 19% 11670 107608 20610 67%
c f  0.92 31 422 0 2 453 42 2503 1300 3.3 16 5 3 9 19% 12231 106464 21181 68%
c u  1.00 31 422 0 2 453 42 2503 1251 3.3 16 5 3 9 19% 12239 106464 21181 68%
c v  1.02 31 422 0 2 453 42 2503 1202 3.3 16 5 3 9 19% 12239 106464 21181 68%
c w  1.04 31 422 0 2 453 42 2503 1197 3.3 16 5 3 9 19% 12239 106464 21181 68%
c x  1.06 31 422 0 2 453 42 2503 1197 3.3 16 5 3 9 19% 12240 106138 21181 68%
c =  1.12 31 422 0 2 453 42 2503 1197 3.3 16 5 3 9 19% 12556 106138 21023 68%
c d  1.13 31 422 0 2 453 42 2503 1196 3.3 16 5 3 9 19% 12239 106138 21023 68%
c f  1.16 31 422 0 2 453 42 2503 1196 3.3 16 5 3 9 19% 12263 106102 21035 68%
c -  1.45 31 415 0 3 632 43 3414 1719 3.6 18 5 3 9 21% 12315 106099 21035 68%
c -  2.01 31 359 0 4 922 41 5148 2840 4.0 23 6 3 9 23% 12396 106092 21035 68%
c -  2.46 31 346 0 5 1070 39 7149 3778 4.2 24 6 2 8 23% 12502 106088 21035 68%
c d  2.59 31 332 0 5 1124 38 7709 4190 4.2 24 6 2 8 22% 12411 106084 20979 68%
c u  2.62 31 332 0 5 1124 38 7709 3711 4.2 24 6 2 8 22% 12437 106084 20979 68%
c v  2.66 31 332 0 5 1124 38 7709 3163 4.2 24 6 2 8 22% 12437 106084 20979 68%
c w  2.71 31 332 0 5 1124 38 7709 3154 4.2 24 6 2 8 22% 12437 106084 20979 68%
c x  2.74 31 332 0 5 1124 38 7709 3154 4.2 24 6 2 8 22% 12439 105646 20979 68%
c =  2.86 31 332 0 5 1124 38 7709 3154 4.2 24 6 2 8 22% 12945 105646 20726 67%
c d  2.87 31 332 0 5 1124 38 7709 3139 4.2 24 6 2 8 22% 12353 105646 20717 67%
c t  2.89 31 332 0 5 1124 38 7709 3139 4.2 24 6 2 8 22% 12337 105646 20717 67%
c
c  seconds   switched    rate       size/glue tier1    binary           remaining
c         MB  reductions  conflicts       size  tier2      irredundant
c           level  restarts    redundant    glue   trail           variables
c
c f  2.92 31 332 0 5 1124 38 7709 3139 4.2 24 6 2 8 22% 12572 105261 20837 67%
c c  2.98 31 332 0 5 1124 38 7709 3139 4.2 24 6 2 8 22% 12574 105247 20836 67%
c d  2.98 31 332 0 5 1124 38 7709 3139 4.2 24 6 2 8 22% 12572 105247 20836 67%
c u  3.00 31 332 0 5 1124 38 7709 3059 4.2 24 6 2 8 22% 12573 105247 20836 67%
c v  3.02 31 332 0 5 1124 38 7709 2990 4.2 24 6 2 8 22% 12573 105247 20836 67%
c w  3.05 31 332 0 5 1124 38 7709 2984 4.2 24 6 2 8 22% 12573 105247 20836 67%
c x  3.09 31 332 0 5 1124 38 7709 2984 4.2 24 6 2 8 22% 12573 105094 20836 67%
c =  3.20 31 332 0 5 1124 38 7709 2984 4.2 24 6 2 8 22% 13387 105094 20429 66%
c d  3.21 31 332 0 5 1124 38 7709 2969 4.2 24 6 2 8 22% 12433 105094 20429 66%
c t  3.22 31 332 0 5 1124 38 7709 2969 4.2 24 6 2 8 22% 12396 105094 20429 66%
c f  3.26 31 332 0 5 1124 38 7709 2969 4.2 24 6 2 8 22% 15040 101112 21755 70%
c -  3.61 31 320 0 6 1261 36 9386 3797 4.2 24 6 2 8 24% 15110 101112 21755 70%
c o  3.75 31 314 0 6 1328 36 10002 4291 4.2 25 6 2 8 24% 15143 101112 21755 70%
c -  4.05 31 335 0 7 1470 36 11835 5202 4.2 24 6 2 8 24% 15256 101105 21755 70%
c s  4.24 31 337 0 7 1510 35 12513 5828 4.2 25 6 2 8 24% 15263 96115 21755 70%
c e  4.35 31 337 0 7 1510 35 12513 5828 4.2 25 6 2 8 24% 14147 97004 21095 68%
c 2  4.35 31 337 0 7 1510 35 12513 5828 4.2 25 6 2 8 24% 14146 97004 21095 68%
c s  4.35 31 337 0 7 1510 35 12513 5828 4.2 25 6 2 8 24% 14154 96485 21095 68%
c e  4.37 31 337 0 7 1510 35 12513 5828 4.2 25 6 2 8 24% 14134 96502 21087 68%
c ^  4.37 31 337 0 7 1510 35 12513 5828 4.2 25 6 2 8 24% 14134 96502 21087 68%
c
c  seconds   switched    rate        size/glue tier1    binary          remaining
c         MB  reductions   conflicts       size  tier2      irredundant
c           level  restarts     redundant    glue   trail          variables
c
c -  4.77 31 332 0 8 1649 35 14481 6216 4.1 25 6 2 8 25% 14217 96500 21087 68%
c d  5.24 31 336 0 8 1821 36 15795 7302 4.3 27 6 2 8 25% 13786 96495 20800 67%
c u  5.30 31 336 0 8 1821 36 15795 6382 4.3 27 6 2 8 25% 13806 96495 20800 67%
c v  5.35 31 336 0 8 1821 36 15795 5489 4.3 27 6 2 8 25% 13806 96495 20800 67%
c w  5.50 31 336 0 8 1821 36 15795 5488 4.3 27 6 2 8 25% 13806 96495 20800 67%
c =  5.69 31 336 0 8 1821 36 15795 5488 4.3 27 6 2 8 25% 14534 96489 20436 66%
c d  5.70 31 336 0 8 1821 36 15795 5433 4.3 27 6 2 8 25% 13611 96489 20430 66%
c t  5.73 31 336 0 8 1821 36 15795 5433 4.3 27 6 2 8 25% 13544 96489 20430 66%
c f  5.80 31 336 0 8 1821 36 15795 5433 4.3 27 6 2 8 25% 13649 96262 20491 66%
c u  5.86 31 336 0 8 1821 36 15795 5216 4.3 27 6 2 8 25% 13654 96262 20491 66%
c v  5.90 31 336 0 8 1821 36 15795 5105 4.3 27 6 2 8 25% 13654 96262 20491 66%
c w  5.99 31 336 0 8 1821 36 15795 5068 4.3 27 6 2 8 25% 13654 96262 20491 66%
c x  6.03 31 336 0 8 1821 36 15795 5068 4.3 27 6 2 8 25% 13739 95201 20491 66%
c =  6.24 31 336 0 8 1821 36 15795 5068 4.3 27 6 2 8 25% 14769 95201 19976 65%
c d  6.25 31 336 0 8 1821 36 15795 5045 4.3 27 6 2 8 25% 13335 95201 19976 65%
c t  6.27 31 336 0 8 1821 36 15795 5045 4.3 27 6 2 8 25% 13324 95201 19976 65%
c -  6.77 31 337 0 9 2000 36 17310 5627 4.4 28 6 2 8 25% 13398 95198 19976 65%
c o  7.31 31 350 0 9 2191 36 20003 7984 4.3 27 6 2 8 25% 13487 95196 19976 65%
c -  7.44 31 350 0 10 2254 36 20310 7424 4.4 28 6 2 7 25% 13490 95196 19976 65%
c -  8.10 31 355 0 11 2519 35 23473 9040 4.3 27 6 2 7 25% 13615 95192 19976 65%
c
c  seconds   switched     rate         size/glue tier1    binary          remaining
c         MB   reductions   conflicts        size  tier2      irredundant
c           level   restarts      redundant    glue   trail          variables
c
c s  8.46 31 348 0 11 2659 35 25017 10384 4.3 27 6 2 7 25% 13652 92921 19976 65%
c e  8.57 31 348 0 11 2659 35 25017 10384 4.3 27 6 2 7 25% 11100 96465 18560 60%
c 2  8.57 31 348 0 11 2659 35 25017 10384 4.3 27 6 2 7 25% 11098 96465 18560 60%
c s  8.58 31 348 0 11 2659 35 25017 10384 4.3 27 6 2 7 25% 11124 96043 18560 60%
c e  8.59 31 348 0 11 2659 35 25017 10384 4.3 27 6 2 7 25% 11093 96082 18548 60%
c ^  8.59 31 348 0 11 2659 35 25017 10384 4.3 27 6 2 7 25% 11093 96082 18548 60%
c -  8.79 31 362 0 12 2754 34 26790 9586 4.3 27 6 2 7 25% 11154 96082 18548 60%
c c  8.84 31 366 0 12 2754 34 26927 9716 4.2 27 6 2 7 25% 11185 95904 18520 60%
c d  8.85 31 366 0 12 2754 34 26927 9661 4.2 27 6 2 7 25% 10750 95904 18293 59%
c u  8.87 31 366 0 12 2754 34 26927 8199 4.2 27 6 2 7 25% 10787 95904 18293 59%
c v  8.90 31 366 0 12 2754 34 26927 7299 4.2 27 6 2 7 25% 10790 95904 18293 59%
c w  8.90 31 366 0 12 2754 34 26927 7298 4.2 27 6 2 7 25% 10790 95904 18293 59%
c x  8.95 31 366 0 12 2754 34 26927 7295 4.2 27 6 2 7 25% 10871 94649 18293 59%
c =  9.13 31 366 0 12 2754 34 26927 7295 4.2 27 6 2 7 25% 13985 94649 16736 54%
c d  9.14 31 366 0 12 2754 34 26927 7048 4.2 27 6 2 7 25% 10771 94649 16735 54%
c t  9.15 31 366 0 12 2754 34 26927 7048 4.2 27 6 2 7 25% 10705 94649 16735 54%
c f  9.19 31 366 0 12 2754 34 26927 7048 4.2 27 6 2 7 25% 10694 94572 16750 54%
c u  9.23 31 366 0 12 2754 34 26927 6529 4.2 27 6 2 7 25% 10702 94572 16750 54%
c v  9.24 31 366 0 12 2754 34 26927 6410 4.2 27 6 2 7 25% 10703 94572 16750 54%
c w  9.25 31 366 0 12 2754 34 26927 6409 4.2 27 6 2 7 25% 10703 94572 16750 54%
c
c  seconds   switched     rate        size/glue tier1    binary          remaining
c         MB   reductions   conflicts       size  tier2      irredundant
c           level   restarts     redundant    glue   trail          variables
c
c x  9.33 31 366 0 12 2754 34 26927 6409 4.2 27 6 2 7 25% 10714 88016 16750 54%
c =  9.50 31 366 0 12 2754 34 26927 6409 4.2 27 6 2 7 25% 13734 88016 15240 49%
c d  9.51 31 366 0 12 2754 34 26927 6360 4.2 27 6 2 7 25% 10676 88016 15240 49%
c t  9.52 31 366 0 12 2754 34 26927 6360 4.2 27 6 2 7 25% 10546 88016 15240 49%
c f  9.55 31 366 0 12 2754 34 26927 6360 4.2 27 6 2 7 25% 10564 87933 15260 49%
c -  9.94 31 349 0 13 3071 33 30254 8393 4.1 26 6 2 7 25% 10634 87931 15260 49%
c - 10.36 31 336 0 14 3409 32 33859 10451 4.0 26 6 2 7 24% 10699 87931 15260 49%
c - 10.82 31 317 0 15 3715 31 37603 12171 4.0 26 7 2 6 24% 10744 87930 15260 49%
c o 11.05 31 305 0 15 3920 31 40009 14220 3.9 26 7 2 6 24% 10782 87929 15260 49%
c c 11.32 31 304 0 15 4054 31 41257 15216 4.0 26 7 2 6 24% 10888 87497 15179 49%
c d 11.32 31 304 0 15 4054 31 41257 15012 4.0 26 7 2 6 24% 10726 87497 15179 49%
c u 11.37 31 304 0 15 4054 31 41257 12432 4.0 26 7 2 6 24% 10753 87497 15179 49%
c v 11.42 31 304 0 15 4054 31 41257 11050 4.0 26 7 2 6 24% 10758 87497 15179 49%
c w 11.45 31 304 0 15 4054 31 41257 11017 4.0 26 7 2 6 24% 10758 87497 15179 49%
c x 11.50 31 304 0 15 4054 31 41257 11017 4.0 26 7 2 6 24% 10759 79959 15179 49%
c = 11.66 31 304 0 15 4054 31 41257 11017 4.0 26 7 2 6 24% 10917 79959 15100 49%
c d 11.67 31 304 0 15 4054 31 41257 11010 4.0 26 7 2 6 24% 10751 79959 15097 49%
c t 11.68 31 304 0 15 4054 31 41257 11010 4.0 26 7 2 6 24% 10704 79959 15097 49%
c f 11.69 31 304 0 15 4054 31 41257 11010 4.0 26 7 2 6 24% 10711 79919 15107 49%
c c 11.74 31 304 0 15 4054 31 41257 11007 4.0 26 7 2 6 24% 10719 79885 15103 49%
c
c  seconds   switched     rate         size/glue tier1    binary          remaining
c         MB   reductions   conflicts        size  tier2      irredundant
c           level   restarts      redundant    glue   trail          variables
c
c d 11.74 31 304 0 15 4054 31 41257 11007 4.0 26 7 2 6 24% 10711 79885 15103 49%
c u 11.77 31 304 0 15 4054 31 41257 10543 4.0 26 7 2 6 24% 10726 79885 15103 49%
c v 11.80 31 304 0 15 4054 31 41257 10173 4.0 26 7 2 6 24% 10727 79885 15103 49%
c w 11.88 31 304 0 15 4054 31 41257 10168 4.0 26 7 2 6 24% 10727 79885 15103 49%
c x 11.92 31 304 0 15 4054 31 41257 10167 4.0 26 7 2 6 24% 10739 78766 15103 49%
c = 12.08 31 304 0 15 4054 31 41257 10167 4.0 26 7 2 6 24% 10741 78766 15102 49%
c d 12.09 31 304 0 15 4054 31 41257 10164 4.0 26 7 2 6 24% 10730 78766 15098 49%
c t 12.10 31 304 0 15 4054 31 41257 10164 4.0 26 7 2 6 24% 10724 78766 15098 49%
c - 12.18 31 303 0 16 4090 31 41478 9172 3.9 26 7 2 6 24% 10724 78766 15098 49%
c - 12.73 31 296 0 17 4531 31 45478 11264 3.9 26 7 2 6 24% 10813 78765 15098 49%
c - 13.26 31 289 0 18 4890 30 49601 13379 3.8 26 7 2 6 24% 10875 78764 15098 49%
c s 13.46 31 289 0 18 5043 30 52121 15593 3.8 26 7 2 6 24% 10933 73343 15098 49%
c e 13.52 31 289 0 18 5043 30 52121 15593 3.8 26 7 2 6 24% 10033 74639 14649 47%
c 2 13.52 31 289 0 18 5043 30 52121 15593 3.8 26 7 2 6 24% 10029 74639 14649 47%
c s 13.52 31 289 0 18 5043 30 52121 15593 3.8 26 7 2 6 24% 10044 74286 14649 47%
c e 13.53 31 289 0 18 5043 30 52121 15593 3.8 26 7 2 6 24% 10005 74320 14633 47%
c ^ 13.53 31 289 0 18 5043 30 52121 15593 3.8 26 7 2 6 24% 10005 74320 14633 47%
c - 13.75 31 282 0 19 5236 29 53843 14273 3.7 26 7 2 6 24% 10018 74319 14633 47%
c - 14.32 31 271 0 20 5682 29 58202 14301 3.7 26 7 1 6 24% 10098 74319 14633 47%
c d 14.42 31 271 0 20 5744 29 58890 14795 3.7 26 7 1 6 24% 10048 74318 14600 47%
c
c  seconds   switched     rate         size/glue tier1    binary          remaining
c         MB   reductions   conflicts        size  tier2      irredundant
c           level   restarts      redundant    glue   trail          variables
c
c u 14.45 31 271 0 20 5744 29 58890 13344 3.7 26 7 1 6 24% 10070 74318 14600 47%
c v 14.50 31 271 0 20 5744 29 58890 11133 3.7 26 7 1 6 24% 10081 74318 14600 47%
c w 14.54 31 271 0 20 5744 29 58890 11075 3.7 26 7 1 6 24% 10081 74318 14600 47%
c x 14.61 31 271 0 20 5744 29 58890 11068 3.7 26 7 1 6 24% 10112 73296 14600 47%
c d 14.62 31 271 0 20 5744 29 58890 11061 3.7 26 7 1 6 24% 10104 73296 14596 47%
c t 14.63 31 271 0 20 5744 29 58890 11061 3.7 26 7 1 6 24% 10061 73296 14596 47%
c f 14.65 31 271 0 20 5744 29 58890 11061 3.7 26 7 1 6 24% 10066 73225 14606 47%
c c 14.68 31 271 0 20 5744 29 58890 11007 3.7 26 7 1 6 24% 10121 73023 14578 47%
c d 14.69 31 271 0 20 5744 29 58890 11007 3.7 26 7 1 6 24% 10065 73023 14578 47%
c u 14.72 31 271 0 20 5744 29 58890 10642 3.7 26 7 1 6 24% 10080 73023 14578 47%
c v 14.75 31 271 0 20 5744 29 58890 10162 3.7 26 7 1 6 24% 10084 73023 14578 47%
c w 14.80 31 271 0 20 5744 29 58890 10139 3.7 26 7 1 6 24% 10084 73023 14578 47%
c x 14.94 31 271 0 20 5744 29 58890 10139 3.7 26 7 1 6 24% 10105 72789 14578 47%
c = 15.18 31 271 0 20 5744 29 58890 10139 3.7 26 7 1 6 24% 10561 72787 14350 46%
c d 15.18 31 271 0 20 5744 29 58890 10034 3.7 26 7 1 6 24% 10070 72787 14345 46%
c t 15.19 31 271 0 20 5744 29 58890 10034 3.7 26 7 1 6 24% 10045 72787 14345 46%
c f 15.21 31 271 0 20 5744 29 58890 10034 3.7 26 7 1 6 24% 10045 72781 14346 46%
c - 15.60 31 264 0 21 6034 29 62674 11164 3.7 26 7 1 6 24% 10110 72779 14346 46%
c - 16.20 31 259 0 22 6508 28 67256 13006 3.7 26 7 1 6 24% 10182 72779 14346 46%
c o 16.65 31 254 0 22 6776 28 70131 15670 3.7 26 7 1 6 24% 10205 72779 14346 46%
c
c  seconds   switched     rate         size/glue tier1    binary          remaining
c         MB   reductions   conflicts        size  tier2      irredundant
c           level   restarts      redundant    glue   trail          variables
c
c - 16.95 31 252 0 23 6930 28 71947 14567 3.7 26 7 1 5 24% 10238 72779 14346 46%
c - 17.81 31 246 0 24 7510 28 76743 15875 3.7 26 7 1 5 24% 10317 72779 14346 46%
c c 18.16 31 242 0 24 7766 28 79966 18674 3.6 26 7 1 5 24% 10516 71707 14138 46%
c d 18.16 31 242 0 24 7766 28 79966 18121 3.6 26 7 1 5 24% 10100 71707 14138 46%
c u 18.20 31 242 0 24 7766 28 79966 16109 3.6 26 7 1 5 24% 10097 71707 14138 46%
c v 18.26 31 242 0 24 7766 28 79966 13698 3.6 26 7 1 5 24% 10111 71707 14138 46%
c w 18.41 31 242 0 24 7766 28 79966 13311 3.6 26 7 1 5 24% 10112 71707 14138 46%
c = 18.57 31 242 0 24 7766 28 79966 13311 3.6 26 7 1 5 24% 10658 71707 13865 45%
c d 18.58 31 242 0 24 7766 28 79966 13071 3.6 26 7 1 5 24% 10046 71707 13854 45%
c t 18.59 31 242 0 24 7766 28 79966 13071 3.6 26 7 1 5 24% 9996 71707 13854 45%
c f 18.60 31 242 0 24 7766 28 79966 13071 3.6 26 7 1 5 24% 9999 71676 13859 45%
c c 18.64 31 242 0 24 7766 28 79966 13064 3.6 26 7 1 5 24% 10014 71612 13851 45%
c d 18.64 31 242 0 24 7766 28 79966 13064 3.6 26 7 1 5 24% 9998 71612 13851 45%
c u 18.67 31 242 0 24 7766 28 79966 12527 3.6 26 7 1 5 24% 10003 71612 13851 45%
c v 18.70 31 242 0 24 7766 28 79966 11945 3.6 26 7 1 5 24% 10008 71612 13851 45%
c w 18.83 31 242 0 24 7766 28 79966 11865 3.6 26 7 1 5 24% 10008 71612 13851 45%
c x 18.89 31 242 0 24 7766 28 79966 11865 3.6 26 7 1 5 24% 10013 68204 13851 45%
c = 19.23 31 242 0 24 7766 28 79966 11865 3.6 26 7 1 5 24% 10765 68075 13461 43%
c d 19.23 31 242 0 24 7766 28 79966 11522 3.6 26 7 1 5 24% 9959 68075 13461 43%
c t 19.24 31 242 0 24 7766 28 79966 11522 3.6 26 7 1 5 24% 9876 68075 13461 43%
c
c  seconds   switched     rate         size/glue tier1    binary         remaining
c         MB   reductions   conflicts        size  tier2     irredundant
c           level   restarts      redundant    glue   trail         variables
c
c f 19.26 31 242 0 24 7766 28 79966 11522 3.6 26 7 1 5 24% 9885 68015 13469 43%
c - 19.43 31 240 0 25 7880 28 81641 11025 3.6 26 7 1 5 24% 9894 68013 13469 43%
c - 19.98 31 232 0 26 8278 27 86641 13351 3.6 26 7 1 5 24% 9923 68008 13469 43%
c i 20.36 31 226 0 26 8599 27 90799 17001 3.5 25 7 1 5 24% 9979 68006 13468 43%
c - 20.46 31 225 0 27 8659 26 91741 15452 3.5 25 7 1 5 24% 9987 68005 13468 43%
c i 20.81 31 222 0 27 8888 26 93564 17153 3.5 25 7 1 5 24% 9998 68003 13467 43%
c i 20.97 31 220 0 27 8983 26 94989 18468 3.5 25 7 1 5 24% 10011 68003 13466 43%
c s 21.16 31 220 0 27 9133 26 95814 19257 3.5 25 7 1 5 24% 10016 66481 13466 43%
c e 21.24 31 220 0 27 9133 26 95814 19257 3.5 25 7 1 5 24% 6549 74616 11769 38%
c 2 21.24 31 220 0 27 9133 26 95814 19257 3.5 25 7 1 5 24% 6539 74616 11769 38%
c s 21.26 31 220 0 27 9133 26 95814 19257 3.5 25 7 1 5 24% 6561 74057 11769 38%
c e 21.27 31 220 0 27 9133 26 95814 19257 3.5 25 7 1 5 24% 6520 74161 11744 38%
c ^ 21.27 31 220 0 27 9133 26 95814 19257 3.5 25 7 1 5 24% 6520 74161 11744 38%
c - 21.47 31 219 0 28 9300 26 96938 12114 3.5 26 7 1 5 24% 6524 74161 11744 38%
c - 21.92 31 212 0 29 9730 26 102234 14390 3.4 25 7 1 5 24% 6570 74160 11744 38%
c i 22.25 31 209 0 29 10002 26 104549 16529 3.4 25 7 1 5 24% 6585 74160 11743 38%
c d 22.26 31 209 0 29 10011 26 104622 16473 3.4 25 7 1 5 24% 6541 74150 11720 38%
c d 22.26 31 209 0 29 10011 26 104622 16473 3.4 25 7 1 5 24% 6539 74150 11719 38%
c u 22.29 31 209 0 29 10011 26 104622 14706 3.4 25 7 1 5 24% 6559 74150 11719 38%
c v 22.34 31 209 0 29 10011 26 104622 12481 3.4 25 7 1 5 24% 6566 74150 11719 38%
c
c  seconds   switched      rate          size/glue tier1    binary         remaining
c         MB   reductions    conflicts         size  tier2     irredundant
c           level   restarts        redundant    glue   trail         variables
c
c w 22.45 31 209 0 29 10011 26 104622 12460 3.4 25 7 1 5 24% 6566 74150 11719 38%
c x 22.51 31 209 0 29 10011 26 104622 12460 3.4 25 7 1 5 24% 6569 73859 11719 38%
c = 22.88 31 209 0 29 10011 26 104622 12460 3.4 25 7 1 5 24% 6782 73694 11593 37%
c d 22.88 31 209 0 29 10011 26 104622 12023 3.4 25 7 1 5 24% 6544 73693 11592 37%
c t 22.89 31 209 0 29 10011 26 104622 12023 3.4 25 7 1 5 24% 6492 73693 11592 37%
c f 22.94 31 209 0 29 10011 26 104622 12023 3.4 25 7 1 5 24% 6510 73574 11602 37%
c c 22.98 31 209 0 29 10011 26 104622 12010 3.4 25 7 1 5 24% 6530 73514 11593 37%
c d 22.99 31 209 0 29 10011 26 104622 12010 3.4 25 7 1 5 24% 6514 73514 11593 37%
c u 23.03 31 209 0 29 10011 26 104622 11436 3.4 25 7 1 5 24% 6519 73514 11593 37%
c v 23.07 31 209 0 29 10011 26 104622 10865 3.4 25 7 1 5 24% 6524 73514 11593 37%
c w 23.20 31 209 0 29 10011 26 104622 10549 3.4 25 7 1 5 24% 6524 73514 11593 37%
c = 23.53 31 209 0 29 10011 26 104622 10549 3.4 25 7 1 5 24% 6528 73506 11590 37%
c d 23.53 31 209 0 29 10011 26 104622 10548 3.4 25 7 1 5 24% 6522 73506 11589 37%
c t 23.54 31 209 0 29 10011 26 104622 10548 3.4 25 7 1 5 24% 6512 73506 11589 37%
c f 23.55 31 209 0 29 10011 26 104622 10548 3.4 25 7 1 5 24% 6514 73494 11590 37%
c - 23.71 31 204 0 30 10141 25 107621 11185 3.4 25 7 1 5 24% 6535 73488 11590 37%
c o 23.83 31 199 0 30 10272 24 110198 13439 3.3 24 7 1 5 24% 6567 73487 11590 37%
c - 24.00 31 194 0 31 10463 24 113098 13744 3.3 24 7 1 5 23% 6603 73484 11590 37%
c i 24.06 31 191 0 31 10539 23 114516 14986 3.3 24 7 1 5 23% 6618 73484 11586 37%
c i 24.11 31 190 0 31 10621 23 115340 15743 3.2 24 7 1 5 23% 6625 73484 11585 37%
c
c  seconds   switched      rate          size/glue tier1    binary         remaining
c         MB   reductions    conflicts         size  tier2     irredundant
c           level   restarts        redundant    glue   trail         variables
c
c i 24.11 31 190 0 31 10621 23 115348 15743 3.2 24 7 1 5 23% 6626 73484 11584 37%
c i 24.11 31 190 0 31 10622 23 115413 15793 3.2 24 7 1 5 23% 6629 73484 11583 37%
c i 24.11 31 189 0 31 10624 23 115654 15985 3.2 24 7 1 5 23% 6633 73484 11581 37%
c i 24.12 31 188 0 31 10627 23 115932 16229 3.2 24 7 1 5 23% 6639 73484 11580 37%
c i 24.12 31 188 0 31 10634 23 116146 16416 3.2 24 7 1 5 23% 6640 73484 11578 37%
c i 24.16 31 185 0 31 10644 23 117326 17477 3.2 23 7 1 5 23% 6642 73484 11577 37%
c i 24.16 31 184 0 31 10644 22 117707 17784 3.2 23 7 1 5 22% 6649 73484 11556 37%
c i 24.16 31 184 0 31 10644 22 117712 17784 3.2 23 7 1 5 22% 6651 73484 11555 37%
c i 24.16 31 184 0 31 10644 22 117713 17784 3.2 23 7 1 5 22% 6651 73484 11516 37%
c } 24.16 31 184 0 31 10644 22 117715 17784 3.2 23 7 1 5 22% 6651 73484 11509 37%
c 0 24.16 31 184 0 31 10644 22 117715 17784 3.2 23 7 1 5 22% 6651 73484 11509 37%
c
c ---- [ result ] ------------------------------------------------------------
c
s UNSATISFIABLE
c
c ---- [ profiling ] ---------------------------------------------------------
c
c          16.18   66.96 %  search
c          16.18   66.96 %  focused
c           7.55   31.23 %  simplify
c           7.21   29.85 %  probe
c           2.88   11.92 %  sweep
c           2.75   11.40 %  vivify
c           0.55    2.28 %  factor
c           0.53    2.20 %  eliminate
c           0.47    1.94 %  congruence
c           0.41    1.68 %  substitute
c           0.39    1.60 %  preprocess
c           0.18    0.74 %  fastel
c           0.15    0.61 %  reduce
c           0.10    0.43 %  transitive
c           0.10    0.39 %  subsume
c           0.05    0.22 %  backbone
c           0.03    0.12 %  lucky
c           0.02    0.09 %  parse
c =============================================
c          24.16  100.00 %  total
c
c ---- [ statistics ] --------------------------------------------------------
c
c chronological:                         5445                5 %  conflicts
c conflicts:                           117715             4871.98 per second
c congruent:                             3924               13 %  variables
c decisions:                          2759503               23.44 per conflict
c eliminated:                           13513               44 %  variables
c factored:                              4985               16 %  variables
c fast_eliminated:                       9230               68 %  eliminated
c fast_strengthened:                       19                2 %  per strengthened
c fast_subsumed:                           70                0 %  per subsumed
c iterations:                              16                0 %  variables
c propagations:                     106281986          4398792    per second
c reductions:                              31             3797    interval
c reordered:                                5            23543    interval
c restarts:                             10644               11    interval
c strengthened:                          1193                0 %  checks
c substituted:                          10805               35 %  variables
c subsumed:                             16027                1 %  checks
c switched:                                 0                0    interval
c vivified:                             61264               12 %  checks
c
c ---- [ glue usage ] --------------------------------------------------------
c
c focused glue 1 used 156054 clauses 55.13% accumulated 55.13% tier1
c focused glue 2 used  61047 clauses 21.57% accumulated 76.70%
c focused glue 3 used  19310 clauses  6.82% accumulated 83.52%
c focused glue 4 used  11909 clauses  4.21% accumulated 87.73%
c focused glue 5 used   7917 clauses  2.80% accumulated 90.53% tier2
c
c ---- [ resources ] ---------------------------------------------------------
c
c maximum-resident-set-size:         32432128 bytes         31 MB
c process-time:                            24s              24.16 seconds
c
c ---- [ shutting down ] -----------------------------------------------------
c
c exit 20
